NAME : senseval3_subTrees1.gtsp.pid13615.gtsp.26843550.tour
COMMENT : Length = 26843550
COMMENT : Found by LKH [Keld Helsgaun] Wed Feb 28 20:58:06 2018
TYPE : TOUR
DIMENSION : 37
TOUR_SECTION
1
2
3
4
5
6
7
37
19
20
21
22
23
24
25
26
27
28
29
30
31
32
33
34
35
36
9
8
10
11
12
14
15
16
17
18
13
-1
EOF
